/*********************************************
    * Lab01 - FCD_FCR
    * Author: Coso
    * Creation Date: Mar, 2019
    *********************************************/
instance_name = "small_instance_17_FCD_FCR";

d = 2;
r = 3;

SCj = [107 106];
Fj = [1849, 1418];
Dk = [86 19 10];

Cjk = [[86 76 77]
 [74 31 85]];
Fjk = [[ 923 1065  913]
 [ 563  991  818]];
